GLPSOL--GLPK LP/MIP Solver 5.0
Parameter(s) specified in the command line:
 --lp ../modeles/10_59.lp --log 10_59.log
Reading problem data from '../modeles/10_59.lp'...
631 rows, 1200 columns, 4180 non-zeros
590 integer variables, all of which are binary
1847 lines were read
GLPK Integer Optimizer 5.0
631 rows, 1200 columns, 4180 non-zeros
590 integer variables, all of which are binary
Preprocessing...
580 constraint coefficient(s) were reduced
631 rows, 1190 columns, 4170 non-zeros
590 integer variables, all of which are binary
Scaling...
 A: min|aij| =  1.149e-03  max|aij| =  4.000e+00  ratio =  3.481e+03
GM: min|aij| =  1.302e-01  max|aij| =  7.681e+00  ratio =  5.900e+01
EQ: min|aij| =  1.695e-02  max|aij| =  1.000e+00  ratio =  5.900e+01
2N: min|aij| =  1.562e-02  max|aij| =  1.719e+00  ratio =  1.100e+02
Constructing initial basis...
Size of triangular part is 631
Solving LP relaxation...
GLPK Simplex Optimizer 5.0
631 rows, 1190 columns, 4170 non-zeros
      0: obj =   2.000000000e+01 inf =   4.950e+01 (21)
    109: obj =   4.943965517e-01 inf =   0.000e+00 (0)
*   333: obj =  -3.152966102e+00 inf =   7.920e-15 (0)
OPTIMAL LP SOLUTION FOUND
Integer optimization begins...
Long-step dual simplex will be used
+   333: mip =     not found yet >=              -inf        (1; 0)
+   399: >>>>>  -3.152966102e+00 >=  -3.152966102e+00   0.0% (64; 0)
+   399: mip =  -3.152966102e+00 >=     tree is empty   0.0% (0; 127)
INTEGER OPTIMAL SOLUTION FOUND
Time used:   0.1 secs
Memory used: 1.8 Mb (1931238 bytes)
